60
55 229
888 653
764 814
222 699
541 564
243 299
343 586
177 620
629 126
944 443
932 450
619 409
244 346
77 701
92 492
984 688
736 505
804 564
381 927
939 507
808 951
708 404
346 140
280 655
567 952
242 102
633 336
948 603
693 167
312 298
225 834
181 72
750 737
985 277
807 975
773 221
605 22
325 466
254 654
480 467
980 932
343 570
242 485
528 924
131 915
83 318
990 581
268 473
641 544
828 846
122 967
936 446
357 742
435 706
652 618
559 951
430 634
786 483
103 114
961 808
